(set-option :print-success false)
(set-logic QF_UF)
(declare-sort x17 0)
(declare-sort x107 0)
(declare-fun x90 () x107)
(declare-fun x58 () x107)
(declare-fun x8 (x107 x107) x107)
(declare-fun x75 () x107)
(declare-fun x148 (x107 x107) x107)
(declare-fun x158 () x107)
(declare-fun x123 () x107)
(assert (or (= (x148 x158 x158) x158) (or (= (x148 x58 x58) x58) (or (= (x148 x123 x123) x123) (or (= x90 (x148 x90 x90)) (= (x148 x75 x75) x75))))))
(assert (or (and (and (and (not (= (x148 (x148 x123 x158) x158) x123)) (and (not (= x75 (x148 (x148 x75 x158) x158))) (not (= x90 (x148 (x148 x90 x158) x158))))) (not (= (x148 (x148 x58 x158) x158) x58))) (not (= (x148 (x148 x158 x158) x158) x158))) (or (or (or (and (not (= x158 (x148 (x148 x158 x75) x75))) (and (and (and (not (= x75 (x148 (x148 x75 x75) x75))) (not (= (x148 (x148 x90 x75) x75) x90))) (not (= (x148 (x148 x123 x75) x75) x123))) (not (= (x148 (x148 x58 x75) x75) x58)))) (and (not (= x158 (x148 (x148 x158 x90) x90))) (and (not (= x58 (x148 (x148 x58 x90) x90))) (and (and (not (= (x148 (x148 x75 x90) x90) x75)) (not (= x90 (x148 (x148 x90 x90) x90)))) (not (= x123 (x148 (x148 x123 x90) x90))))))) (and (not (= (x148 (x148 x158 x123) x123) x158)) (and (not (= x58 (x148 (x148 x58 x123) x123))) (and (not (= x123 (x148 (x148 x123 x123) x123))) (and (not (= x75 (x148 (x148 x75 x123) x123))) (not (= x90 (x148 (x148 x90 x123) x123)))))))) (and (and (not (= x58 (x148 (x148 x58 x58) x58))) (and (and (not (= x90 (x148 (x148 x90 x58) x58))) (not (= (x148 (x148 x75 x58) x58) x75))) (not (= x123 (x148 (x148 x123 x58) x58))))) (not (= (x148 (x148 x158 x58) x58) x158))))))
(assert (and (and (and (not (= x58 x123)) (and (not (= x158 x90)) (and (and (and (not (= x75 x158)) (and (and (not (= x75 x123)) (not (= x75 x90))) (not (= x58 x75)))) (not (= x90 x123))) (not (= x58 x90))))) (not (= x158 x123))) (not (= x158 x58))))
(assert (let ((x142 (x148 x90 x158)) (x126 (x148 x158 x90)) (x87 (x148 x158 x58)) (x88 (x148 x158 x158)) (x154 (x148 x75 x58)) (x13 (x148 x75 x158)) (x50 (x148 x123 x123)) (x147 (x148 x123 x75)) (x76 (x148 x75 x90)) (x46 (x148 x90 x123)) (x140 (x148 x75 x75)) (x52 (x148 x90 x58)) (x6 (x148 x75 x123)) (x12 (x148 x58 x75)) (x151 (x148 x58 x58)) (x38 (x148 x58 x158)) (x157 (x148 x58 x123)) (x143 (x148 x158 x123)) (x85 (x148 x123 x158)) (x34 (x148 x90 x75)) (x66 (x148 x158 x75)) (x67 (x148 x58 x90)) (x129 (x148 x90 x90)) (x30 (x148 x123 x58)) (x86 (x148 x123 x90))) (let ((x117 (= x58 x129)) (x53 (= x158 x30)) (x21 (= x58 x50)) (x100 (= x158 x76)) (x19 (= x76 x75)) (x28 (= x66 x158)) (x78 (= x142 x123)) (x55 (= x75 x46)) (x122 (= x147 x123)) (x32 (= x67 x75)) (x93 (= x142 x58)) (x48 (= x90 x88)) (x27 (= x75 x38)) (x94 (= x85 x123)) (x141 (= x12 x90)) (x15 (= x58 x46)) (x119 (= x58 x30)) (x7 (= x58 x143)) (x5 (= x158 x151)) (x139 (= x123 x38)) (x57 (= x90 x151)) (x4 (= x90 x50)) (x115 (= x158 x52)) (x51 (= x58 x85)) (x69 (= x46 x90)) (x150 (= x30 x90)) (x35 (= x90 x87)) (x1 (= x90 x142)) (x9 (= x52 x123)) (x118 (= x129 x90)) (x44 (= x154 x75)) (x102 (= x85 x75)) (x84 (= x123 x129)) (x145 (= x52 x58)) (x80 (= x67 x58)) (x106 (= x13 x58)) (x18 (= x86 x158)) (x41 (= x75 x157)) (x72 (= x6 x75)) (x132 (= x90 x143)) (x108 (= x30 x75)) (x134 (= x38 x90)) (x36 (= x75 x140)) (x59 (= x126 x90)) (x74 (= x38 x158)) (x111 (= x13 x90)) (x112 (= x75 x88)) (x79 (= x75 x147)) (x124 (= x58 x86)) (x152 (= x126 x158)) (x133 (= x46 x158)) (x89 (= x90 x85)) (x24 (= x123 x6)) (x16 (= x50 x158)) (x62 (= x123 x157)) (x101 (= x151 x123)) (x121 (= x58 x151)) (x110 (= x34 x75)) (x61 (= x58 x154)) (x98 (= x30 x123)) (x40 (= x129 x75)) (x95 (= x143 x75)) (x114 (= x46 x123)) (x2 (= x66 x90)) (x92 (= x86 x75)) (x49 (= x76 x123)) (x45 (= x75 x151)) (x60 (= x67 x123)) (x23 (= x140 x123)) (x138 (= x142 x158)) (x37 (= x6 x158)) (x120 (= x58 x88)) (x105 (= x58 x140)) (x149 (= x154 x123)) (x130 (= x75 x66)) (x65 (= x12 x58)) (x144 (= x123 x126)) (x56 (= x87 x75)) (x3 (= x90 x76)) (x125 (= x75 x52)) (x31 (= x67 x90)) (x104 (= x58 x157)) (x63 (= x123 x34)) (x91 (= x123 x12)) (x113 (= x126 x58)) (x99 (= x157 x158)) (x68 (= x158 x140)) (x116 (= x75 x126)) (x135 (= x158 x12)) (x159 (= x87 x123)) (x43 (= x158 x85)) (x29 (= x58 x66)) (x83 (= x90 x86)) (x25 (= x123 x13)) (x82 (= x147 x90)) (x64 (= x50 x75)) (x97 (= x13 x158)) (x54 (= x6 x90)) (x47 (= x147 x58)) (x73 (= x90 x140)) (x136 (= x142 x75)) (x128 (= x6 x58)) (x71 (= x158 x34)) (x70 (= x75 x13)) (x96 (= x50 x123)) (x20 (= x158 x67)) (x155 (= x90 x157)) (x156 (= x154 x90)) (x26 (= x87 x58)) (x146 (= x158 x88)) (x14 (= x158 x87)) (x11 (= x88 x123)) (x103 (= x58 x34)) (x42 (= x123 x66)) (x10 (= x123 x143)) (x81 (= x58 x38)) (x153 (= x90 x34)) (x131 (= x86 x123)) (x22 (= x129 x158)) (x77 (= x158 x143)) (x127 (= x147 x158)) (x39 (= x75 x12)) (x109 (= x154 x158)) (x137 (= x52 x90)) (x33 (= x76 x58))) (and (and (and (and (and (and (and (or (or (or x47 (or x103 x105)) x65) x29) (or (or (or x128 (or x33 x105)) x61) x106)) (and (and (or (or x149 (or (or x49 x23) x24)) x25) (or (or x91 (or (or x23 x63) x122)) x42)) (and (and (or x111 (or x156 (or (or x73 x3) x54))) (or (or (or (or x73 x153) x82) x141) x2)) (and (or (or x39 (or x79 (or x110 x36))) x130) (or (or x44 (or (or x19 x36) x72)) x70))))) (and (or (or (or x37 (or x68 x100)) x109) x97) (or (or x135 (or (or x71 x68) x127)) x28))) (and (and (or (or x115 (or x133 (or x22 x71))) x138) (or (or (or (or x100 x22) x18) x20) x152)) (and (and (and (or (or x60 (or (or x84 x49) x131)) x144) (or (or (or (or x84 x63) x114) x9) x78)) (and (and (or (or (or x92 (or x19 x40)) x32) x116) (or (or (or x55 (or x110 x40)) x125) x136)) (and (or x1 (or x137 (or x69 (or x118 x153)))) (or x59 (or (or x83 (or x118 x3)) x31))))) (and (or x93 (or x145 (or (or x103 x117) x15))) (or x113 (or (or (or x117 x33) x124) x80)))))) (and (and (or (or (or x16 (or x133 x37)) x99) x77) (or (or x53 (or (or x18 x127) x16)) x43)) (and (and (and (and (or (or x155 (or (or x54 x69) x4)) x132) (or (or (or x4 (or x82 x83)) x150) x89)) (and (or x95 (or (or (or x72 x55) x64) x41)) (or (or (or (or x92 x79) x64) x108) x102))) (and (or x94 (or (or (or x131 x122) x96) x98)) (or (or x62 (or (or x24 x114) x96)) x10))) (and (or (or (or (or x128 x15) x21) x104) x7) (or (or (or x21 (or x47 x124)) x119) x51))))) (and (and (or (or (or x99 (or x20 x135)) x5) x74) (or x14 (or x5 (or (or x109 x115) x53)))) (and (and (and (or x139 (or x101 (or x62 (or x60 x91)))) (or (or (or x98 (or x149 x9)) x101) x159)) (and (and (or x134 (or x57 (or (or x141 x31) x155))) (or (or x57 (or x150 (or x137 x156))) x35)) (and (or x27 (or x45 (or x41 (or x39 x32)))) (or x56 (or (or x108 (or x44 x125)) x45))))) (and (or (or (or x104 (or x80 x65)) x121) x81) (or x26 (or x121 (or x119 (or x61 x145)))))))) (and (and (or x146 (or (or (or x138 x97) x43) x74)) (or x146 (or x14 (or (or x28 x152) x77)))) (and (and (or (or (or (or x29 x113) x7) x26) x120) (or x120 (or x81 (or (or x106 x93) x51)))) (and (and (or x11 (or (or (or x78 x25) x94) x139)) (or (or (or (or x144 x42) x10) x159) x11)) (and (and (or x112 (or (or (or x70 x136) x102) x27)) (or x112 (or (or x95 (or x116 x130)) x56))) (and (or (or (or (or x1 x111) x89) x134) x48) (or (or x35 (or x132 (or x2 x59))) x48))))))))))
(assert (let ((x147 (x148 x58 x90)) (x13 (x148 x75 x90)) (x6 (x148 x58 x75)) (x68 (x148 x58 x123)) (x34 (x148 x123 x90)) (x46 (x148 x158 x58)) (x12 (x148 x158 x90)) (x154 (x148 x158 x75)) (x142 (x148 x90 x158)) (x52 (x148 x75 x158)) (x66 (x148 x75 x123)) (x153 (x148 x123 x58)) (x86 (x148 x158 x158)) (x19 (x148 x75 x58)) (x76 (x148 x123 x75)) (x129 (x148 x58 x58)) (x110 (x148 x158 x123)) (x3 (x148 x123 x158)) (x140 (x148 x90 x75)) (x36 (x148 x75 x75)) (x105 (x148 x123 x123)) (x73 (x148 x90 x90)) (x23 (x148 x90 x123)) (x40 (x148 x90 x58)) (x118 (x148 x58 x158))) (and (and (and (not (= x118 x86)) (and (not (= x86 x3)) (and (not (= x118 x3)) (and (not (= x86 x142)) (and (not (= x118 x142)) (and (not (= x142 x3)) (and (not (= x86 x52)) (and (and (not (= x3 x52)) (not (= x52 x142))) (not (= x118 x52)))))))))) (and (and (and (and (and (and (and (not (= x23 x68)) (and (and (not (= x110 x66)) (and (not (= x68 x66)) (and (not (= x23 x66)) (not (= x105 x66))))) (not (= x105 x23)))) (not (= x23 x110))) (not (= x68 x105))) (not (= x105 x110))) (not (= x68 x110))) (and (and (not (= x147 x12)) (and (not (= x34 x12)) (and (not (= x34 x147)) (and (and (not (= x147 x73)) (and (not (= x34 x73)) (and (and (not (= x13 x147)) (and (not (= x13 x73)) (not (= x34 x13)))) (not (= x12 x13))))) (not (= x12 x73)))))) (and (and (not (= x154 x76)) (and (and (not (= x154 x140)) (and (not (= x6 x140)) (and (not (= x76 x140)) (and (not (= x154 x36)) (and (not (= x6 x36)) (and (not (= x140 x36)) (not (= x76 x36)))))))) (not (= x76 x6)))) (not (= x6 x154))))) (and (and (and (not (= x129 x153)) (and (and (and (not (= x153 x40)) (and (and (and (not (= x153 x19)) (not (= x19 x40))) (not (= x129 x19))) (not (= x46 x19)))) (not (= x129 x40))) (not (= x46 x40)))) (not (= x153 x46))) (not (= x46 x129))))) (and (and (and (not (= x110 x86)) (and (and (not (= x12 x86)) (and (not (= x12 x46)) (and (not (= x12 x110)) (and (and (and (not (= x154 x110)) (not (= x154 x12))) (not (= x46 x154))) (not (= x154 x86)))))) (not (= x110 x46)))) (not (= x86 x46))) (and (and (and (and (and (and (and (and (not (= x118 x6)) (and (not (= x129 x6)) (and (not (= x6 x147)) (not (= x68 x6))))) (not (= x68 x147))) (not (= x147 x129))) (not (= x118 x147))) (not (= x129 x68))) (not (= x68 x118))) (not (= x118 x129))) (and (and (and (not (= x142 x40)) (and (and (and (and (not (= x73 x40)) (and (and (not (= x140 x142)) (and (not (= x40 x140)) (and (not (= x140 x23)) (not (= x73 x140))))) (not (= x73 x23)))) (not (= x142 x73))) (not (= x23 x40))) (not (= x142 x23)))) (and (not (= x52 x19)) (and (and (not (= x66 x19)) (and (not (= x13 x52)) (and (and (and (and (not (= x19 x36)) (and (not (= x36 x13)) (not (= x66 x36)))) (not (= x36 x52))) (not (= x66 x13))) (not (= x19 x13))))) (not (= x52 x66))))) (and (and (not (= x105 x3)) (and (and (not (= x3 x34)) (and (not (= x153 x34)) (and (not (= x105 x34)) (and (and (not (= x76 x153)) (and (not (= x34 x76)) (not (= x76 x105)))) (not (= x3 x76)))))) (not (= x153 x105)))) (not (= x3 x153)))))))))
(assert (or (and (not (= x158 (x148 (x148 x158 x158) x158))) (and (and (and (not (= (x148 (x148 x158 x75) x158) x75)) (not (= x90 (x148 (x148 x158 x90) x158)))) (not (= x123 (x148 (x148 x158 x123) x158)))) (not (= x58 (x148 (x148 x158 x58) x158))))) (or (and (and (not (= (x148 (x148 x58 x58) x58) x58)) (and (and (not (= (x148 (x148 x58 x75) x58) x75)) (not (= x90 (x148 (x148 x58 x90) x58)))) (not (= x123 (x148 (x148 x58 x123) x58))))) (not (= (x148 (x148 x58 x158) x58) x158))) (or (or (and (and (not (= x58 (x148 (x148 x90 x58) x90))) (and (not (= (x148 (x148 x90 x123) x90) x123)) (and (not (= x90 (x148 (x148 x90 x90) x90))) (not (= (x148 (x148 x90 x75) x90) x75))))) (not (= x158 (x148 (x148 x90 x158) x90)))) (and (not (= x158 (x148 (x148 x75 x158) x75))) (and (and (and (not (= (x148 (x148 x75 x75) x75) x75)) (not (= x90 (x148 (x148 x75 x90) x75)))) (not (= x123 (x148 (x148 x75 x123) x75)))) (not (= (x148 (x148 x75 x58) x75) x58))))) (and (not (= x158 (x148 (x148 x123 x158) x123))) (and (not (= x58 (x148 (x148 x123 x58) x123))) (and (not (= (x148 (x148 x123 x123) x123) x123)) (and (not (= (x148 (x148 x123 x75) x123) x75)) (not (= x90 (x148 (x148 x123 x90) x123)))))))))))
(assert (not (and (= x75 (x148 x158 x158)) (and (and (= x123 (x148 x158 x123)) (and (and (= x158 (x148 x158 x75)) (and (= x90 (x148 x58 x158)) (and (= x158 (x148 x58 x58)) (and (and (and (and (and (= x75 (x148 x123 x58)) (and (= x90 (x148 x123 x123)) (and (= (x148 x123 x90) x158) (and (and (= x158 (x148 x90 x158)) (and (= x123 (x148 x90 x58)) (and (and (= x90 (x148 x90 x90)) (and (= (x148 x90 x75) x58) (and (= (x148 x75 x158) x123) (and (= x58 (x148 x75 x58)) (and (= (x148 x75 x123) x158) (and (= x90 (x148 x75 x75)) (= x75 (x148 x75 x90)))))))) (= (x148 x90 x123) x75)))) (= x123 (x148 x123 x75)))))) (= x58 (x148 x123 x158))) (= (x148 x58 x75) x75)) (= (x148 x58 x90) x123)) (= x58 (x148 x58 x123)))))) (= x58 (x148 x158 x90)))) (= x90 (x148 x158 x58))))))
(assert (let ((x92 (x148 x90 x90)) (x83 (x148 x58 x90)) (x131 (x148 x58 x123)) (x63 (x148 x75 x90)) (x67 (x148 x75 x75)) (x133 (x148 x158 x58)) (x103 (x148 x123 x75)) (x82 (x148 x90 x58)) (x122 (x148 x123 x58)) (x100 (x148 x158 x75)) (x24 (x148 x123 x158)) (x50 (x148 x90 x158)) (x114 (x148 x158 x123)) (x157 (x148 x123 x123)) (x141 (x148 x158 x158)) (x37 (x148 x58 x158)) (x84 (x148 x75 x123)) (x55 (x148 x90 x123)) (x127 (x148 x58 x58)) (x64 (x148 x123 x90)) (x33 (x148 x75 x58)) (x49 (x148 x90 x75)) (x30 (x148 x158 x90)) (x71 (x148 x75 x158)) (x117 (x148 x58 x75))) (let ((x154 (not (= x75 x103))) (x105 (not (= x75 x82))) (x28 (not (= x100 x158))) (x4 (not (= x90 x55))) (x22 (not (= x49 x90))) (x119 (not (= x123 x114))) (x140 (not (= x49 x75))) (x3 (not (= x75 x133))) (x68 (not (= x131 x75))) (x102 (not (= x33 x58))) (x72 (not (= x92 x90))) (x99 (not (= x123 x141))) (x89 (not (= x114 x58))) (x39 (not (= x90 x71))) (x52 (not (= x114 x75))) (x21 (not (= x122 x90))) (x96 (not (= x90 x117))) (x142 (not (= x24 x75))) (x87 (not (= x55 x123))) (x126 (not (= x90 x67))) (x104 (not (= x123 x71))) (x98 (not (= x123 x131))) (x116 (not (= x84 x58))) (x5 (not (= x92 x58))) (x43 (not (= x133 x158))) (x23 (not (= x83 x75))) (x18 (not (= x90 x127))) (x137 (not (= x103 x123))) (x91 (not (= x157 x123))) (x2 (not (= x131 x58))) (x10 (not (= x67 x158))) (x34 (not (= x55 x75))) (x36 (not (= x67 x75))) (x40 (not (= x75 x100))) (x149 (not (= x83 x123))) (x145 (not (= x123 x50))) (x121 (not (= x123 x24))) (x15 (not (= x90 x131))) (x155 (not (= x67 x123))) (x78 (not (= x92 x158))) (x151 (not (= x49 x123))) (x109 (not (= x67 x58))) (x66 (not (= x75 x33))) (x62 (not (= x33 x123))) (x111 (not (= x58 x30))) (x7 (not (= x117 x158))) (x147 (not (= x157 x75))) (x1 (not (= x58 x50))) (x32 (not (= x30 x90))) (x31 (not (= x141 x90))) (x38 (not (= x123 x63))) (x42 (not (= x37 x58))) (x152 (not (= x71 x158))) (x56 (not (= x55 x58))) (x86 (not (= x75 x141))) (x20 (not (= x37 x123))) (x139 (not (= x84 x158))) (x65 (not (= x123 x127))) (x124 (not (= x83 x90))) (x57 (not (= x123 x64))) (x16 (not (= x90 x100))) (x128 (not (= x90 x82))) (x95 (not (= x58 x64))) (x159 (not (= x158 x49))) (x80 (not (= x123 x100))) (x69 (not (= x64 x90))) (x129 (not (= x75 x30))) (x26 (not (= x33 x158))) (x19 (not (= x75 x127))) (x156 (not (= x123 x92))) (x14 (not (= x158 x50))) (x70 (not (= x58 x157))) (x29 (not (= x158 x55))) (x11 (not (= x64 x158))) (x106 (not (= x83 x158))) (x146 (not (= x158 x141))) (x25 (not (= x158 x63))) (x144 (not (= x58 x141))) (x13 (not (= x84 x75))) (x48 (not (= x58 x133))) (x136 (not (= x117 x58))) (x59 (not (= x58 x122))) (x77 (not (= x30 x158))) (x135 (not (= x133 x123))) (x94 (not (= x158 x103))) (x35 (not (= x100 x58))) (x125 (not (= x90 x24))) (x112 (not (= x82 x58))) (x138 (not (= x24 x158))) (x143 (not (= x90 x157))) (x53 (not (= x58 x63))) (x41 (not (= x90 x50))) (x153 (not (= x75 x71))) (x150 (not (= x84 x123))) (x61 (not (= x123 x30))) (x54 (not (= x84 x90))) (x47 (not (= x33 x90))) (x132 (not (= x127 x58))) (x97 (not (= x158 x114))) (x110 (not (= x122 x75))) (x108 (not (= x133 x90))) (x101 (not (= x123 x122))) (x85 (not (= x103 x90))) (x60 (not (= x123 x117))) (x51 (not (= x131 x158))) (x88 (not (= x71 x58))) (x12 (not (= x75 x117))) (x118 (not (= x75 x37))) (x27 (not (= x58 x83))) (x113 (not (= x158 x157))) (x44 (not (= x90 x114))) (x93 (not (= x82 x158))) (x46 (not (= x75 x50))) (x79 (not (= x90 x63))) (x9 (not (= x82 x123))) (x76 (not (= x75 x63))) (x134 (not (= x24 x58))) (x45 (not (= x90 x37))) (x73 (not (= x75 x64))) (x6 (not (= x75 x92))) (x120 (not (= x158 x127))) (x74 (not (= x37 x158))) (x130 (not (= x58 x103))) (x81 (not (= x122 x158))) (x115 (not (= x58 x49)))) (or (and (and (and (or x43 x74) (and (or x97 x138) (and (or x28 x152) (or x14 x77)))) (or x146 x146)) (and (and (and (and (or x81 x51) (and (and (or x94 x139) (or x11 x29)) (or x113 x113))) (or x97 x138)) (and (and (or x28 x152) (and (and (and (or x10 x10) (or x25 x159)) (or x94 x139)) (or x7 x26))) (and (or x14 x77) (and (or x93 x106) (and (and (or x159 x25) (or x78 x78)) (or x29 x11)))))) (and (or x43 x74) (and (or x120 x120) (and (and (or x93 x106) (or x26 x7)) (or x51 x81)))))) (or (or (or (and (and (and (or x118 x3) (and (and (or x68 x110) (and (or x23 x105) (or x66 x12))) (or x19 x19))) (and (and (and (or x153 x40) (and (and (and (or x36 x36) (or x140 x76)) (or x154 x13)) (or x12 x66))) (and (and (and (or x73 x34) (and (or x6 x6) (or x76 x140))) (or x105 x23)) (or x129 x46))) (and (and (or x68 x110) (and (and (or x73 x34) (or x154 x13)) (or x147 x147))) (or x142 x52)))) (and (or x86 x86) (and (and (or x142 x52) (and (or x40 x153) (or x129 x46))) (or x118 x3)))) (and (and (and (and (and (and (or x96 x47) (and (and (or x126 x126) (or x22 x79)) (or x54 x85))) (or x39 x16)) (and (and (and (and (or x72 x72) (or x79 x22)) (or x69 x4)) (or x128 x124)) (or x32 x41))) (and (or x44 x125) (and (and (or x143 x143) (and (or x85 x54) (or x69 x4))) (or x15 x21)))) (and (or x45 x108) (and (and (or x15 x21) (and (or x128 x124) (or x96 x47))) (or x18 x18)))) (and (or x31 x31) (and (and (or x44 x125) (and (or x32 x41) (or x16 x39))) (or x45 x108))))) (and (and (and (or x135 x20) (and (or x121 x119) (and (or x104 x80) (or x61 x145)))) (or x99 x99)) (and (and (and (or x121 x119) (and (and (and (or x87 x57) (or x137 x150)) (or x91 x91)) (or x101 x98))) (and (and (or x80 x104) (and (and (or x150 x137) (and (or x151 x38) (or x155 x155))) (or x62 x60))) (and (or x145 x61) (and (or x9 x149) (and (and (or x156 x156) (or x151 x38)) (or x87 x57)))))) (and (or x135 x20) (and (and (and (or x62 x60) (or x9 x149)) (or x98 x101)) (or x65 x65)))))) (and (and (and (or x48 x42) (and (or x132 x132) (and (or x59 x2) (and (or x112 x27) (or x102 x136))))) (and (and (and (and (or x27 x112) (and (and (or x115 x53) (or x5 x5)) (or x56 x95))) (or x1 x111)) (and (and (or x136 x102) (and (and (or x53 x115) (or x109 x109)) (or x130 x116))) (or x35 x88))) (and (or x89 x134) (and (or x2 x59) (and (or x70 x70) (and (or x116 x130) (or x95 x56))))))) (and (and (and (or x134 x89) (and (or x1 x111) (or x88 x35))) (or x42 x48)) (or x144 x144))))))))
(assert (and (= x158 (x148 x58 x58)) (and (and (= x75 (x148 x123 x58)) (= (x148 x158 x58) x90)) (= (x148 x90 x58) x123))))
(assert (let ((x103 (x148 x75 x58)) (x12 (x148 x58 x75)) (x6 (x148 x90 x90)) (x23 (x148 x58 x90)) (x126 (x148 x75 x90)) (x142 (x148 x123 x158)) (x73 (x148 x123 x90)) (x3 (x148 x158 x58)) (x46 (x148 x90 x158)) (x49 (x148 x75 x123)) (x68 (x148 x58 x123)) (x117 (x148 x75 x158)) (x67 (x148 x75 x75)) (x19 (x148 x58 x58)) (x154 (x148 x123 x75)) (x86 (x148 x158 x158)) (x118 (x148 x58 x158)) (x52 (x148 x158 x123)) (x140 (x148 x90 x75)) (x105 (x148 x90 x58)) (x147 (x148 x123 x123)) (x110 (x148 x123 x58)) (x129 (x148 x158 x90)) (x40 (x148 x158 x75)) (x34 (x148 x90 x123))) (let ((x100 (= x90 x6)) (x36 (= x67 x75)) (x153 (= x75 x117)) (x82 (= x123 x147)) (x69 (= x123 x142)) (x83 (= x68 x58)) (x76 (= x75 x126)) (x4 (= x58 x118)) (x55 (= x46 x90)) (x13 (= x49 x75)) (x157 (= x86 x158)) (x92 (= x90 x105)) (x30 (= x110 x123)) (x50 (= x158 x52)) (x54 (= x3 x158)) (x79 (= x73 x123)) (x22 (= x90 x34)) (x72 (= x58 x23)) (x71 (= x40 x158)) (x84 (= x123 x154)) (x63 (= x90 x140)) (x64 (= x158 x129)) (x85 (= x19 x58)) (x33 (= x58 x12)) (x66 (= x103 x75))) (and (or (or (and x157 x157) (or (or (and x50 x69) (or (and x71 x153) (and x64 x55))) (and x54 x4))) (or (or (or (or (or (or (and x13 (= x154 x158)) (and (= x73 x158) x22)) (and x82 (= x147 x158))) (and x83 (= x158 x110))) (and (= x142 x158) x50)) (or (or (and (= x158 x117) x71) (or (or (or (and (= x158 x126) x63) (and x36 (= x158 x67))) (and x84 (= x158 x49))) (and x33 (= x103 x158)))) (or (and x64 (= x46 x158)) (or (and (= x158 x105) x72) (or (or (and (= x158 x140) x76) (and x100 (= x158 x6))) (and (= x34 x158) x79)))))) (or (and x54 (= x118 x158)) (or (or (or (and (= x12 x158) x66) (and x92 (= x158 x23))) (and x30 (= x158 x68))) (and x85 (= x19 x158)))))) (and (and (or (or (or (and x54 (= x123 x118)) (or (or (or (and (= x12 x123) x66) (and x92 (= x23 x123))) (and x30 (= x68 x123))) (and (= x19 x123) x85))) (or (or (or (or (or (and (= x123 x34) x79) (or (and x76 (= x140 x123)) (and x100 (= x123 x6)))) (and x72 (= x105 x123))) (and x64 (= x46 x123))) (or (or (or (and x84 (= x49 x123)) (or (and x36 (= x123 x67)) (and (= x126 x123) x63))) (and x33 (= x123 x103))) (and x71 (= x117 x123)))) (or (or (and x83 x30) (or (or (and x13 x84) (and x79 x22)) (and x82 x82))) (and x69 x50)))) (or (or (and (= x3 x123) x4) (or (or (and (= x129 x123) x55) (and (= x123 x40) x153)) (and x69 (= x123 x52)))) (and x157 (= x86 x123)))) (and (or (or (or (or (or (or (and x66 x33) (or (or (and x36 x36) (and x76 x63)) (and x84 x13))) (and x153 x71)) (or (or (or (and (= x34 x75) x79) (or (and (= x75 x6) x100) (and (= x140 x75) x76))) (and (= x75 x105) x72)) (and (= x46 x75) x64))) (or (and (= x75 x142) x50) (or (and x83 (= x75 x110)) (or (or (and x22 (= x73 x75)) (and x13 (= x75 x154))) (and (= x75 x147) x82))))) (or (and x54 (= x75 x118)) (or (and x85 (= x75 x19)) (or (or (and x66 (= x12 x75)) (and (= x23 x75) x92)) (and (= x68 x75) x30))))) (or (and x157 (= x86 x75)) (or (and (= x3 x75) x4) (or (or (and x55 (= x129 x75)) (and (= x75 x40) x153)) (and x69 (= x75 x52)))))) (or (or (or (and (= x90 x3) x4) (or (and (= x52 x90) x69) (or (and (= x129 x90) x55) (and x153 (= x90 x40))))) (and (= x90 x86) x157)) (or (or (and x54 (= x90 x118)) (or (or (or (and x66 (= x12 x90)) (and (= x90 x23) x92)) (and x30 (= x68 x90))) (and x85 (= x19 x90)))) (or (or (or (or (and x82 (= x147 x90)) (or (and (= x90 x154) x13) (and x22 (= x73 x90)))) (and x83 (= x90 x110))) (and x50 (= x90 x142))) (or (or (or (and x33 (= x90 x103)) (or (and (= x49 x90) x84) (or (and x63 (= x126 x90)) (and (= x90 x67) x36)))) (and x71 (= x117 x90))) (or (and x55 x64) (or (or (or (and x76 x63) (and x100 x100)) (and x22 x79)) (and x92 x72))))))))) (or (or (or (and x54 x4) (or (or (and x83 x30) (or (and x92 x72) (and x66 x33))) (and x85 x85))) (or (or (or (and x71 (= x58 x117)) (or (or (and (= x58 x49) x84) (or (and (= x67 x58) x36) (and (= x58 x126) x63))) (and x33 (= x103 x58)))) (or (or (or (or (and (= x58 x6) x100) (and x76 (= x140 x58))) (and x79 (= x58 x34))) (and (= x105 x58) x72)) (and x64 (= x58 x46)))) (or (or (and x83 (= x58 x110)) (or (and (= x58 x147) x82) (or (and (= x73 x58) x22) (and (= x154 x58) x13)))) (and (= x142 x58) x50)))) (or (and (= x58 x86) x157) (or (or (or (and x153 (= x58 x40)) (and x55 (= x58 x129))) (and x69 (= x52 x58))) (and (= x3 x58) x4)))))))))
(assert (let ((x6 (x148 x58 x58)) (x154 (x148 x158 x158)) (x76 (x148 x123 x123)) (x140 (x148 x90 x90)) (x36 (x148 x75 x75))) (or (and (not (= x158 x154)) (and (not (= x6 x158)) (and (and (not (= x36 x158)) (not (= x158 x140))) (not (= x158 x76))))) (or (or (and (not (= x123 x154)) (and (and (and (not (= x123 x36)) (not (= x140 x123))) (not (= x123 x76))) (not (= x123 x6)))) (or (and (not (= x154 x90)) (and (and (not (= x76 x90)) (and (not (= x140 x90)) (not (= x90 x36)))) (not (= x6 x90)))) (and (and (and (not (= x75 x76)) (and (not (= x75 x36)) (not (= x140 x75)))) (not (= x6 x75))) (not (= x75 x154))))) (and (not (= x58 x154)) (and (not (= x6 x58)) (and (not (= x58 x76)) (and (not (= x36 x58)) (not (= x58 x140))))))))))
(assert (let ((x23 (x148 x123 x90)) (x153 (x148 x58 x123)) (x34 (x148 x90 x123)) (x40 (x148 x58 x90)) (x46 (x148 x58 x158)) (x154 (x148 x75 x158)) (x12 (x148 x90 x158)) (x105 (x148 x123 x123)) (x52 (x148 x158 x75)) (x66 (x148 x123 x75)) (x6 (x148 x75 x58)) (x68 (x148 x123 x58)) (x129 (x148 x58 x58)) (x142 (x148 x158 x90)) (x19 (x148 x58 x75)) (x118 (x148 x158 x58)) (x110 (x148 x123 x158)) (x36 (x148 x75 x75)) (x13 (x148 x90 x75)) (x147 (x148 x90 x58)) (x3 (x148 x158 x123)) (x76 (x148 x75 x123)) (x73 (x148 x90 x90)) (x140 (x148 x75 x90)) (x86 (x148 x158 x158))) (and (and (and (and (and (and (and (and (or (or (or (= x36 x123) (or (= x36 x90) (= x36 x75))) (= x58 x36)) (= x36 x158)) (or (= x140 x158) (or (= x58 x140) (or (= x140 x123) (or (= x140 x75) (= x90 x140)))))) (or (or (or (= x76 x123) (or (= x76 x90) (= x75 x76))) (= x58 x76)) (= x158 x76))) (or (or (or (= x123 x6) (or (= x6 x75) (= x6 x90))) (= x6 x58)) (= x6 x158))) (or (= x154 x158) (or (or (= x123 x154) (or (= x90 x154) (= x75 x154))) (= x154 x58)))) (and (or (= x12 x158) (or (= x58 x12) (or (or (= x12 x90) (= x12 x75)) (= x123 x12)))) (and (and (or (or (= x58 x34) (or (= x123 x34) (or (= x34 x90) (= x75 x34)))) (= x158 x34)) (and (or (= x158 x73) (or (= x58 x73) (or (= x123 x73) (or (= x73 x75) (= x73 x90))))) (or (= x13 x158) (or (= x13 x58) (or (= x13 x123) (or (= x13 x75) (= x90 x13))))))) (or (or (= x58 x147) (or (= x123 x147) (or (= x90 x147) (= x75 x147)))) (= x147 x158))))) (and (or (or (or (= x123 x110) (or (= x75 x110) (= x110 x90))) (= x110 x58)) (= x158 x110)) (and (or (= x68 x158) (or (= x58 x68) (or (= x68 x123) (or (= x90 x68) (= x75 x68))))) (and (or (or (= x58 x105) (or (or (= x105 x90) (= x75 x105)) (= x105 x123))) (= x105 x158)) (and (or (or (or (or (= x23 x90) (= x23 x75)) (= x123 x23)) (= x23 x58)) (= x158 x23)) (or (= x158 x66) (or (or (= x66 x123) (or (= x90 x66) (= x66 x75))) (= x58 x66)))))))) (and (and (and (and (or (or (= x58 x40) (or (= x123 x40) (or (= x40 x75) (= x90 x40)))) (= x40 x158)) (or (or (= x58 x19) (or (= x19 x123) (or (= x19 x75) (= x19 x90)))) (= x158 x19))) (or (= x153 x158) (or (= x153 x58) (or (or (= x153 x90) (= x75 x153)) (= x123 x153))))) (or (= x129 x158) (or (or (or (= x129 x90) (= x129 x75)) (= x123 x129)) (= x129 x58)))) (or (= x46 x158) (or (or (= x123 x46) (or (= x46 x75) (= x90 x46))) (= x58 x46))))) (and (and (and (or (or (or (= x123 x3) (or (= x90 x3) (= x75 x3))) (= x58 x3)) (= x158 x3)) (and (or (or (= x58 x52) (or (= x52 x123) (or (= x52 x75) (= x52 x90)))) (= x158 x52)) (or (or (= x58 x142) (or (or (= x142 x75) (= x90 x142)) (= x123 x142))) (= x158 x142)))) (or (= x118 x158) (or (= x58 x118) (or (= x118 x123) (or (= x90 x118) (= x75 x118)))))) (or (= x86 x158) (or (or (or (= x90 x86) (= x86 x75)) (= x86 x123)) (= x58 x86)))))))
(assert (and (and (or (not (= x158 (x148 (x148 x158 x58) x58))) (or (not (= (x148 (x148 x58 x58) x58) x58)) (or (or (not (= (x148 (x148 x90 x58) x58) x90)) (not (= (x148 (x148 x75 x58) x58) x75))) (not (= x123 (x148 (x148 x123 x58) x58)))))) (and (or (or (or (or (not (= x90 (x148 (x148 x90 x123) x123))) (not (= x75 (x148 (x148 x75 x123) x123)))) (not (= (x148 (x148 x123 x123) x123) x123))) (not (= (x148 (x148 x58 x123) x123) x58))) (not (= x158 (x148 (x148 x158 x123) x123)))) (and (or (not (= (x148 (x148 x158 x90) x90) x158)) (or (or (not (= x123 (x148 (x148 x123 x90) x90))) (or (not (= (x148 (x148 x75 x90) x90) x75)) (not (= (x148 (x148 x90 x90) x90) x90)))) (not (= (x148 (x148 x58 x90) x90) x58)))) (or (not (= (x148 (x148 x158 x75) x75) x158)) (or (or (not (= x123 (x148 (x148 x123 x75) x75))) (or (not (= x90 (x148 (x148 x90 x75) x75))) (not (= (x148 (x148 x75 x75) x75) x75)))) (not (= (x148 (x148 x58 x75) x75) x58))))))) (or (or (or (not (= x123 (x148 (x148 x123 x158) x158))) (or (not (= (x148 (x148 x90 x158) x158) x90)) (not (= (x148 (x148 x75 x158) x158) x75)))) (not (= (x148 (x148 x58 x158) x158) x58))) (not (= (x148 (x148 x158 x158) x158) x158)))))
(assert (not (and (and (and (= x123 (x148 x158 x123)) (and (= (x148 x158 x90) x58) (and (and (and (and (and (= x90 (x148 x58 x90)) (and (and (and (and (= (x148 x123 x123) x58) (and (and (and (= (x148 x90 x158) x90) (and (= x123 (x148 x90 x58)) (and (and (= (x148 x90 x90) x75) (and (and (= x123 (x148 x75 x158)) (and (and (and (= (x148 x75 x75) x75) (= (x148 x75 x90) x158)) (= x90 (x148 x75 x123))) (= x58 (x148 x75 x58)))) (= x58 (x148 x90 x75)))) (= x158 (x148 x90 x123))))) (= x90 (x148 x123 x75))) (= x123 (x148 x123 x90)))) (= (x148 x123 x58) x75)) (= x158 (x148 x123 x158))) (= (x148 x58 x75) x123))) (= (x148 x58 x123) x75)) (= x158 (x148 x58 x58))) (= x58 (x148 x58 x158))) (= (x148 x158 x75) x158)))) (= x90 (x148 x158 x58))) (= (x148 x158 x158) x75))))
(assert (or (or (and (not (= (x148 x158 (x148 x58 x158)) x58)) (and (and (not (= (x148 x123 (x148 x58 x123)) x58)) (and (not (= x58 (x148 x90 (x148 x58 x90)))) (not (= x58 (x148 x75 (x148 x58 x75)))))) (not (= (x148 x58 (x148 x58 x58)) x58)))) (or (and (not (= x123 (x148 x158 (x148 x123 x158)))) (and (not (= x123 (x148 x58 (x148 x123 x58)))) (and (and (not (= (x148 x75 (x148 x123 x75)) x123)) (not (= (x148 x90 (x148 x123 x90)) x123))) (not (= (x148 x123 (x148 x123 x123)) x123))))) (or (and (not (= (x148 x158 (x148 x75 x158)) x75)) (and (not (= x75 (x148 x58 (x148 x75 x58)))) (and (not (= x75 (x148 x123 (x148 x75 x123)))) (and (not (= x75 (x148 x75 (x148 x75 x75)))) (not (= x75 (x148 x90 (x148 x75 x90)))))))) (and (not (= (x148 x158 (x148 x90 x158)) x90)) (and (and (and (not (= x90 (x148 x75 (x148 x90 x75)))) (not (= (x148 x90 (x148 x90 x90)) x90))) (not (= x90 (x148 x123 (x148 x90 x123))))) (not (= (x148 x58 (x148 x90 x58)) x90))))))) (and (and (not (= (x148 x58 (x148 x158 x58)) x158)) (and (and (not (= x158 (x148 x90 (x148 x158 x90)))) (not (= (x148 x75 (x148 x158 x75)) x158))) (not (= (x148 x123 (x148 x158 x123)) x158)))) (not (= (x148 x158 (x148 x158 x158)) x158)))))
(check-sat)
(exit)
